peakDumbCharging = 14800; 
Machine = anon_enum(16); 
machineSpeed = [3700,3700,3700,3700,3700,3700,3700,3700,3700,3700,3700,3700,3700,3700,3700,3700]; 
machineLoad = [3700,3700,3700,3700,3700,3700,3700,3700,3700,3700,3700,3700,3700,3700,3700,3700]; 
Car = anon_enum(17); 
demandCar = [15840,4720,3280,10400,4040,4080,6400,5200,2960,2760,8080,24960,9040,4560,9840,3440,9240]; 
arrivalCar = [76,67,67,67,65,64,63,61,61,60,55,54,51,51,47,44,36]; 
departureCar = [82,72,70,74,67,67,67,65,63,62,58,66,56,53,51,46,40]; 
